InboundTrucks  = 12;
OutboundTrucks = 8;
InboundDoors   = 4;
OutboundDoors  = 4;
ReleaseTime    = [74,108,24,116,69,118,45,59,6,84,64,27];
UnloadTime     = [37,30,36,29,12,11,13,41,13,22,42,21];
LoadTime       = [8,14,5,29,25,24,16,8];
TransferTime   = [| 19,33,0,42,49,0,0,0 | 12,38,0,48,0,0,22,0 | 0,18,29,45,0,29,0,30 | 26,0,30,0,21,49,31,0 | 33,0,31,32,0,0,24,21 | 0,39,11,15,0,0,0,0 | 0,44,49,26,0,26,0,40 | 38,45,0,0,0,0,0,0 | 38,0,0,11,50,27,0,49 | 0,0,0,36,45,16,0,0 | 0,13,39,0,33,22,0,0 | 47,0,0,10,0,0,0,18 |];
